Route #1: 3 17 34 33 5 10
Route #2: 6 43 49 9 35
Route #3: 8 21 48 50 41 25
Route #4: 28 27 19 22 30 7 4
Route #5: 45 1 18 29
Route #6: 31 42 26 20 46 14
Route #7: 13 54 52 24 44 23
Route #8: 36 2 51 11 15 37
Route #9: 53 40 16 38 39 47 12 32
cost 1176.712158203125